ingredients = {null, flour, sugar, coconutFat};
nothing = null;

ingredientsCost = [0.00, 0.50, 1.00, 0.50];

meals = {lemonPancake, chocolateCake};

maxIngredients = 3;

mealIngredients = [|flour, sugar, coconutFat|flour, sugar, coconutFat|];
% add amounts of igredient required per meal to calculate cost and how much ingredient required.
mealIngredientsAmounts = [|1.0, 0.5, 0.5|1.0, 1.0, 1.0|];

% later add storage cost and purchase cost of ingredients and add to ingredientsCost.
          
people = {p0, p1, p2};

maxRefusals = 1;

doesNotEat = [|null|null|null|];